
 102   30
  10   10   10   10   10   10   10   10   10   10   10   10   10   10   10   10   10   10   10   10   10   10   10   10   10   10   10   10   10   10

   0   0   0   0   0   0   0   0   0   0   0   0   0   0   0   0   0   0   0   0   0   0   0   0   0   0   0   0   0   0   0  30 2 3 4 5 6 7 8 9 10 11 12 13 14 15 16 17 20 21 22 23 24 26 30 33 34 35 36 37 38 39 
   8   0   0   0   0   0   0   0   0   0   0   1   0   0   0   1   0   0   0   0   0   0   0   0   0   0   0   0   0   0   0  12 71 69 68 65 60 56 54 52 46 45 25 19 
   9   0   0   0   0   0   0   3   0   0   0   0   0   1   4   0   0   0   0   0   0   0   0   0   0   0   0   1   2   0   0  10 71 65 60 58 54 53 52 46 25 19 
   9   0   0   2   0   0   0   0   0   0   0   0   0   0   0   0   0   0   0   0   0   1   0   0   0   0   0   0   0   0   0   8 71 61 51 46 44 40 32 18 
   9   0   0   0   0   0   1   7   0   0   0   0   0   0   0   2   3   0   0   0   0   0   0   0   0   2   0   0   0   0   0  15 100 72 65 64 63 61 58 57 54 51 50 47 46 45 28 
   1   1   0   0   0   2   0   0   0   0   0   0   0   0   0   0   0   0   0   0   1  10   1   0   0   0   0   0   0   0   1  22 101 99 98 94 82 72 70 69 68 65 64 62 61 59 57 51 50 49 48 46 44 40 
   8   0   0   0   0   0   0   0   0   0   0   0   0   0   0   0   0   0   0   0   0   0   0   0   0   0   0   0   0   0  10  11 98 94 70 61 54 53 50 47 44 32 27 
   2   0   0   0   0   0   0   0   0   0   0   0   0   0   6   0   6   0   2   0   0   0   0   2   1   7   1   0   0   0   0  20 100 98 97 89 71 70 69 68 67 66 65 64 61 54 52 51 50 49 48 42 
   5   0   0   0   0   0   0   0   0   0   0   0   0   0   0   0   0   0   0   0   9   0   0   0   0   0   0   0   0   0   4  16 99 97 96 71 70 65 64 61 58 57 53 51 50 46 44 31 
   3   0   0   0   0   0   0   0   0   0   0   0   0   0   0   3   0   0   0   0   0   0   0   2   0   0   0   0   0   0   0  12 101 99 94 62 61 55 54 53 50 49 48 27 
   4   5   0   0   0   0   0   0   0   1   0   0   0   0   0   0   0   0   0   0   0   0   0   0   0   0   8   0   0   0   0  12 101 99 96 72 71 70 69 66 65 47 42 29 
   2   0   0   5   5   0   0   0   0   0   0   7   0   0   0   0   0   0   0   0   8   0   0   0   0   6   0   0   0   0   0  16 98 97 94 82 72 70 69 68 66 64 62 58 51 46 42 40 
   4   0   0   0   0   0   0   0   0   0   0   0   0   0   0   0   0   0   0   0   0   0   7   0   2   0   0   5   0   0   0  18 101 99 98 95 94 90 72 69 65 64 63 61 60 54 53 47 46 44 
   1   0   0   0   0   0   0   0   1   0   3   0   0   0   0   6   8   0   0   0   0   0   0   0   0   0   0   0   0   0   6  18 101 98 95 94 72 71 70 69 65 63 62 60 59 57 55 49 45 44 
   4   0   0   0   0   0   0   0   5   0   0   0   0   0   0   0   0   2   0   0   0   0   0   6   0   0   6   4   7   0   0  13 98 94 71 70 69 63 62 61 54 50 46 44 32 
   6   0   0   0   0   0   0   0   0   0   0   0   0   0   0   0   0   0   0   0   0   0   0   0   0   0   0   0   0   0   0  15 100 98 97 95 94 91 82 71 66 64 58 57 50 48 40 
   9   0   1   0   0   0   0   0   0   0   0   0   1   0   0   0   0   0   0   0   0   0   6   6   0   0   0   0   0   0   6  17 101 100 99 96 95 94 93 90 89 68 67 64 63 61 49 47 44 
   4   0   0   0   5   5   0   3   0   0   0   5   0   9   0   0   0   0   0   0   0   7   0   0   0   0   0   0   9   0   0  16 100 98 94 91 86 82 72 69 68 64 63 62 60 57 50 41 
   7   0   0   0   0   0   0   0   0   0   0   0   0   0   0  10   0   3   0   0   8   0   0   0   7   0   3   0   0   0   0  16 100 98 96 95 94 93 90 89 70 67 66 63 50 49 47 44 
   8   0   0   0   0   0   0   0   0   6   9   6   0   6   0   0   0   0   0   0   5   0   0   0   0   0   0   0   0   2   0  12 100 97 95 94 91 85 84 82 60 48 46 43 
   2   0   0   0   0   0   0   5   0   6   0   6   0   6   0   5   0   0   0   0   0   4   0   0   0   0   0   8   0   0   0  17 99 95 94 93 91 90 85 83 82 76 70 67 63 60 54 49 46 
   8   0   0   0   0   8   0   0   0   0   0   8   0   0   0   0   0   0   0   0   0   0   0   0   0   0   0   0   0   4   9  14 97 95 94 92 89 82 69 68 66 65 61 57 49 44 
   6   0   0   0   0   0   0   0   0   0   3   0   0   0   0   0   0   0   0   0   0   0   0   0   0   0   0  10   0   0   0  14 98 97 95 93 90 81 75 68 64 62 61 60 52 44 
   8   0   0   0   0   0   0   0   0   2   0   0   0   0   6   0   0   0   0   0   0   5   0   0   0   0   0   0   6   0   0  12 98 93 82 71 69 68 67 64 54 50 49 46 
  10   5   0   0   3   0   5   0   0   0   0   0   0   0   0   0   0   4   0   0   0   0   0   0   0   0   0   0   0   0   0  17 99 96 94 93 86 85 84 83 82 80 75 72 64 63 62 61 59 
   8   0   0   0   0   0   0   0   0   0   0   0   0   0   0   0   0   0   0   0   0   7   0   0   0   0   0   7   0   0   0  15 100 99 86 84 83 82 77 69 67 66 65 63 60 54 53 
   1   0   0   0   0   0   0   0   0   7   0   0   0   3   6   4   0   0   0   0   0   0   0   0   0   4   0   0   0   0   0  13 100 97 90 88 82 79 69 67 63 60 58 51 46 
   7   0   0   0   0   0   0   0   0   0   0   0   0   0   0   0   0   0   0   0   0   0   0   0   0   0   0   0   0   0   0  17 99 98 95 94 92 90 86 85 83 82 80 75 71 68 66 62 49 
   9   0   0   0   5   0   0   0   0   0   0   0   0   0   5   0   0   0   0   0   0   0   7   0   0   0   0   0   0   0   0  15 98 95 94 93 92 90 89 87 82 68 67 64 63 60 44 
   9   0   0   0   0   0   0   0   0  10   0   0   0   0   0   0   0   0   0   0   0   0   0   7   0   0   0   0   0   0   6  16 100 99 98 96 95 94 93 90 82 80 75 74 73 72 66 44 
   7   0   0   0   0   0   6   0   5   0   0   0   0   0   0   0   0   0   4   1   0   0   0   0   0  10   0   0   0   0   0  14 100 95 94 92 91 89 85 83 77 69 67 60 55 49 
   2   0   0   0   0   0   7   0   5   8   0   0   3   0   0   8   0   0   0   0   0   0   0   0   0   0   0   0   0   0   0  15 97 95 92 91 90 89 86 85 83 82 79 77 67 65 49 
   4   0   0   0   0   0   8   0   0   0   0   0   0   0   8  10   0   0   0   0   0   0   0   0   7   0   0   0   0   7   0  14 96 95 94 93 90 86 85 83 82 75 63 61 60 49 
   9   0   0   0   0   0   0   0   0   0   0   0   0   0   0   0   0   0   0   0   0   0   0   0   0   5   0   0   0   0   0  13 97 95 93 91 85 84 83 82 81 78 67 62 53 
  10   0   0   6   0   0   0   0   0   0   0   0   0   0   0   0   0   0   0   0   0   0   0   0   0   0   0   0   0   0   0   9 99 94 90 87 82 81 70 54 50 
   2   0   0   0   0   0   7   0   0   0   0   0   0   4   0   0   0   0   0   0   0   0   0   0   0   0   0   0   0   0   0  13 95 94 93 90 86 83 82 80 79 77 75 68 49 
   8   0   5   0   0   0   6   0   0   0   0   0   0   0   0   0   3   0   0   0   0   0   0   0   0   0   0   0   0  10   0  12 95 94 92 91 86 85 84 81 79 77 63 53 
   4   0   0   7   0   0   0   0   0   0   7   0   0   0   0   0   0   0   0   0   0   0   0   2   0   0   4   0   0   0   0  12 98 92 90 86 85 83 81 77 75 63 61 55 
   1   0   7   0   0   0   0   0   0   0   0   0   0   0   0   0   0   0   5   0   0   7   0   0   5   0   0   0   0   0   0   8 82 80 76 75 74 62 61 59 
   5   0   0   0   0   0   0   0   0   0   8   0   0   0   0   0   0   0   0   0   0   0   0   0   0   0   0   0  10   0   0  10 93 89 87 83 81 77 76 73 67 54 
   1   0   0   0   0   0   0   0   4   0   0   0   0   0   0   0   0   0   0   0   0   0   0   0   0   0   0   0   0   0   0  15 99 97 96 89 88 87 84 81 79 78 77 76 75 74 73 
   2   0   8   0   0   8   0   0   0   0   0   0   0   0   0   0   0   0   0   0   0   0   0   0   0   0   0   0   0   0   0   9 90 88 86 85 84 77 75 63 60 
   8   4   0   0   0   0   0   0   0   0   0   0   0   5   0   0   0   0   7   0   0   0   0   0   0   0   0   0   4   0   0   7 101 90 86 83 76 67 54 
   6   0   0   2   0   0   0   7   0   0   3   0   9   0   0   0   0   8   0   0   0   4   0   0   0   0   0   0   0   0   0   9 91 86 85 84 83 79 78 77 76 
   4   0   5   3   0   0   0   4   0   4   0   0   0   0   0   0   0   0   0   0   0   0   7   0   0   0   0   0   0   0   0   9 92 89 88 86 82 79 77 76 73 
   8   0   0   0   0   0   0   0   0   0   0   0   0   0   2   0   0   0   0   0   0   0   0   0   0   0   0   0   0   0   7   8 89 87 86 81 78 77 74 73 
  10   0   0   0   0   0   0   4   0   0   0   0   0   0   0   7   0   0   5   0   5   0   9   0   0   0  10   0   5   0   0   8 97 88 85 82 80 76 75 74 
   1   0   0   0   0   0   0   0   0   7   0   0   0   0   0   0   0   0   0   0   0   0   0   0   0   0   0   0   0   0   4   6 93 90 86 77 75 63 
   4   0   0   0   0   0   0   0   0   0   0   0   0   0   0   6   0   0   0   0   4   0   7   7   0   0   0   0   2   6   0   7 88 87 84 81 78 74 73 
   9   0   0   0   0   0   0   0   0   0   0   0   0   0   0   0   0   0   0   0   8   0   0   8   0   5   0   5   0   5   0   7 85 83 79 78 77 75 74 
   6   0   2   0   0   0   0   0   0   0   0   5   0   0   0   8   0   0   0   0   0   0   0   0   0   0   0   0   0   0   0   7 95 91 87 86 83 76 75 
  10   0   0   0   0   0   0   0   0   0   0   0   0   0   0   9   7   0   0   0   0   0   0   8   6   0   8   0   0   0   0   7 94 87 85 82 80 77 73 
   7   0   0   0   0   5   0   0   0   0   0   0   0   0   0   0   0   0   7   0   0   0   0   0   0   0   0   0   0   6   0   6 87 80 76 75 73 68 
   6   0   0   6   0   0   0  10   0   0   7   0   0   0   0   8   0   5   0   0   4   0   0   0   0   0   0   0   0   0   0   5 96 92 88 80 79 
   4   0   0   7   0   0   0   8   0   0   0   0   0   0   0   5   6   6   0   0   0   0   0   0   0   0   0   0   0   0   4   5 84 82 79 76 74 
   1   0   0  10   0   0   0   0   0   0   0   0   2   0   0   0   0   0   0   0   0   0   0   0   0   0   0   0   0   0   0   5 82 80 77 76 75 
   3   0   8   0   6   0   0   0   5   0   0   0   0   7   0   0   0   0   0   0   0   0   0   8   0   0   0   0   0   0   0   4 78 76 74 67 
   1   0   9   0   0   0   0   5   0   0   0   0   0   0   0   0   0   0   0   0   0   0   0   0   0   0   0   0   0   0   0   4 85 84 83 74 
   6   0   0   0   0   0   0   0   9   0   0   0   0   8   0   0   0   0   0   0   0   0   0   5   5   0   0   0   8   0   0   4 92 91 90 81 
   4   0   0   4   0   0   0   0   0   0   0   0   0   0   0   0   0   0   0   0   0   0   0   0   0   0   0   0   0   0   0   3 80 74 73 
   9   0   0   0   0   5   0   0   0   0   0   0   4   0   0   0   0   0   0   0   0   0   0   0   0   0   4   0   0   0   0   3 79 78 73 
   1   0   0  10   0   0   0   0   0   0   0   0   0   0   6   0   0   0   0   0   0   0   0   6   0   0   0   0   0   0   0   3 89 77 73 
   9   0   0   0   4   0   0   0   0   0   0   0   0   4   0   0   8   0   0   0   8   0   0   0   5   0   0   0   0   0   0   2 78 73 
   3   0   0   0   0   0   0   0   0   0   0   0   0   0   0   0   7   0   0   0   0   0   0   0   0   0   0   5   0   0   0   2 76 74 
   1   7   0   0   0   0   0   0   0   0  10   0   8   0   0   0   0   0   0   0   0   0   0   0   0   0   5   6   0   0   0   2 93 76 
   5   5   0   0   0   0   0   4   0   0   0   0   8   0  10   4   0   8   6   0   0   0   0   0   0   0   0   0   0   3   0   2 81 76 
   5   0   0   0   0   0   0   0   0   9   0   8  10   0   0   0   0   0   0   0   0   0   5   0   9   0   0   0   0   0   0   1 75 
   7   0   0   0  10   0   0   0   0   0   0   0   0   0   0   0   0  10   0   8   0   0   0   0   0   0   0   0   0   0   0   1 74 
   4   0   0   0   0   6   0   0   0   0   0   0   0   0   5   0   0   0   0   0   0   0   0   0   7   0   0   0   0   0   0   1 80 
   9   0   4   0   0   0   0   0   6   0   0   0   0   0   0   8   0   0   0   9   7   0   0   0   0   6   0   2   0   5   0   1 73 
   7   0   0   0   6   0   0   0   0   0   0   5   0   0   0   0   0   0   0   0   0   0   0   0   0   0   0   7   0   0   0   1 79 
   8   0   7   0   0   0   0   0   0   0   0   0   0   0   0   0   0   0   0   0   0   8   0   0   5   0   0   0   0   0   0   1 88 
   7   0   0   0   6   0   0   0   0   0   0   3   0   0   0   0   6   0   0   0   0   0   8   0   0   0   0   0   0   0   6   1 102
   8   0   0   0   0   0   9   0   0   0   0   0   0   0   7   0   0   0   0   0   0   0   0   7   0   0   0   0   0   0   8   1 102
   3   0   7   0   0   0   0   0   0   0   0   0   0   0   0   0   0   5   0   0   0   0   0   0   0   0   0   0   0   0   0   1 102
   2   0   0   0   0   0   0   0   0   0   0   0   0   0   0   0   0   0  10   0   0   0   0   6   0   0   0   0   0   0   0   1 102
   7   0   4   0   0   0   0   0   0   0   0   0   0   0   0   0   0   0   0   0   7   0   0   0   0   0   0   0   0   0   0   1 102
   1   0   0   0   0   0   0   0   0   0   0   0   0   0   0   0   0   0   0   0   0   0   0   0   0   0   0   0   0   6   0   1 102
   7   0   0   0   0   0   0   0   0   0   6   0   0   0   0   0   0   0   0   0   0   0   0   0   0   0   6   0   0   0   0   1 102
   1   6   0   0   0   0  10   0   0   0   3   0   0  10   0   0   7   0   0   0   0   0   0   0   0   0   0   0   0   0   0   1 102
   1   6   0   0   0  10   0   0   0   0   0   0   0   0   0   0   0   0   5   0   0   0   0   0   0   0   8   0   0   0   0   1 102
   3   0   0   9   0   0   0   0   0   0   0   0   9   0   0   0  10   0   0   0   0   0   0   0   0   0   0   0   0   0   0   1 102
   9   0   0   0   0   8   0   5   0   0   0   0   0   0   0   0   0   6   0   0   0   7   0   0   0   0   0   0   0  10   7   1 102
   4   9   0   0   0   0   0   0   0   0   7   7   0   0   7   0   0   0   8   5   0   0   0   0   0   0   0   6   0   0   0   1 102
   4   0   0   0   0   4   0   9   9   6   0   0   0   0   0   0   0   0   0   0   0   0   0   0   0   0   0   0   0   0   0   1 102
   1   0   5   7   0   0   0  10   0   0   0   0   0   0   0   0   4   0   0   0   0   0   0   0   0   0   0   0   0   9   0   1 102
   9   0   8   0   0   0   0   0   0   0   0   6   0   0   0   0   0   0   0   0   0   0   0   0   0   0   0   6   0   0   0   1 102
   9   0   0   0   0   0   0   0   6   0   0   5   0   0   0   0   0   0   0   0   0   0   0   0   0   0   0   0   0   0   0   1 102
   7   0   0   0   0   0   0   0   0   0   0   7   0   0   0   0   0   0   0   0   0   0   0   0   0   0   6   8   0   0   0   1 102
   5   0   0   0   0   0   3   0   0   0   0   0   0   8   0   5   8   7   0   0   0   0   4   0   0   0   0   8   0   4   0   1 102
   9   9   0   0   0  10   0   0   0   0   0   6   0   0   0   6   0   0   0   0   0   0   0   0   8   0   0   9   0   0   0   1 102
   5   0   0   0   0   2   0   0   0   0   0   0   0   7   0   5   0   0   0   0   0   0   0   0   0   0   5   0   0   0   0   1 102
   3   0   0   0   0   0   0   0   0   0   9   0   0   0   0   0   0   7   7   0   0   0   0   0   0   0   0   4   7   0   0   1 102
   5   5   0   0   0   0   0   0   0   0   0   0   0   0   0   0   0   0   0   7   0   0   0   0   0   0   0   0   0   0   0   1 102
   3   0   0   0   8   0   0   0   0   0   0   0   0   0   0  10   0   0   0   0   0   0   0  10   7   0   0   0   0   0   0   1 102
   2   0   0   0   7   5   0   0   0   0   0   0   0   0   0   4   1   0   0   0   0   0   0   0  10   0   0   0   0   7   0   1 102
   1   0   0   0   7   0   4   0   0   7   0   0   0   0   0   4   0   0   0   0   4   0   6   0   0   0   0   0   0   0   0   1 102
   2   0   0   0   0   0   0   0   0   0   0   9   0   0   0   0   0   0   0   0   0   0   5   0   0   0   6   0   0   0   0   1 102
   3   0   0   0   0   0   0   0   7   0   0   9   0   0   0   0   0   0   0   0   0   0   0   0   0   8   0   0   0   0   0   1 102
  10  10   0   0   0   0   0   0   0   0   0   0   0   0   0   0   0   0   0   0   0   0   0   0   0   0  10   0   0   0   0   1 102
  10   0  10   0   0   0   0   0  10   5   3   5   0   0   0   0   0   7   0   0   0   0   0   0   0   7   0   7   0   0   0   1 102
   0   0   0   0   0   0   0   0   0   0   0   0   0   0   0   0   0   0   0   0   0   0   0   0   0   0   0   0   0   0   0   0 
